 91 16 61 50 59 69  8 61 44 19
 13 35 84 26 83 24 81 60 98 40
 44 70 83 53 12 48 27 93 95 29
 15 29 39 55 84 97 18 50 35 91
 20 41 15 86  7 30 33 51 97 75
  7  5  3 42 26 22 21 48 98 40
 52 59 45 29 67 16  4 79 22 46
 45 37 22  7 94 74 19 36 94 76
 11 35 55 25 83 67 37 97 32 34
 50 71 72 33 15  1 89 56 53 81